c Random Network
p min 10 20
n 1 1
n 10 -1
c Transformed from a max-flow problem.
a 	 1	4	0	46	0
a 	 2	8	0	4	0
a 	 4	1	0	50	0
a 	 10	3	0	6	0
a 	 2	3	0	5	0
a 	 8	5	0	44	0
a 	 9	2	0	45	0
a 	 2	1	0	26	0
a 	 2	5	0	43	0
a 	 9	6	0	36	0
a 	 9	3	0	33	0
a 	 5	6	0	4	0
a 	 5	8	0	18	0
a 	 3	4	0	29	0
a 	 3	2	0	5	0
a 	 1	2	0	45	0
a 	 6	5	0	19	0
a 	 2	9	0	47	0
a 	 3	7	0	26	0
a 	 3	10	0	46	0
